35 15
1 2 3 6 9 20 25 30
1 3 4 5 7 21 26 31
1 0 4 6 8 22 27 32
1 0 1 7 9 23 28 33
1 1 2 5 8 24 29 34
1 0 5 12 13 16 19 30
1 1 6 13 14 15 17 31
1 2 7 10 14 16 18 32
1 3 8 10 11 17 19 33
1 4 9 11 12 15 18 34
1 10 15 22 23 26 29 30
1 11 16 23 24 25 27 31
1 12 17 20 24 26 28 32
1 13 18 20 21 27 29 33
1 14 19 21 22 25 28 34
